100
14 4
12 0
20 1
24 3
42 1
18 4
10 3
39 4
12 2
2 0
20 3
23 4
41 2
11 3
27 4
37 0
37 4
15 4
2 4
33 3
41 0
40 0
40 3
0 4
4 0
6 3
14 2
7 3
42 0
20 2
1 0
21 0
31 4
39 2
15 2
9 4
43 4
1 3
37 1
36 4
4 2
16 1
12 1
41 4
10 0
43 0
20 4
7 4
40 4
34 1
43 1
32 0
32 3
4 4
13 4
3 3
0 3
9 0
25 0
39 0
12 3
3 4
34 4
37 3
36 1
15 0
10 4
22 3
6 0
28 0
28 3
28 4
13 0
16 3
16 0
30 0
11 4
24 0
29 0
16 4
30 1
21 1
33 0
13 1
27 2
38 0
34 0
29 4
21 2
6 4
36 0
27 0
5 4
18 0
21 4
31 3
33 1
23 0
1 4
41 1

